StudentsNr = 10;
InstructorsNr = 82;
DaysNr = 1;
SlotsPerDay = 40;
AvailabilitySlotsLenght = 40;
RoomNr = 2;
ProgrammNr = 1;
DegreeNr = 1;
RolesNr = 0;
CoursesNr = 6;
InstructorsProgramm = [{1}, {1}, {1}, {1}, {1}, {1}, {1}, {1}, {1}, {1}, {1}, {1}, {1}, {1}, {1}, {1}, {1}, {1}, {1}, {1}, {1}, {1}, {1}, {1}, {1}, {1}, {1}, {1}, {1}, {1}, {1}, {1}, {1}, {1}, {1}, {1}, {1}, {1}, {1}, {1}, {1}, {1}, {1}, {1}, {1}, {1}, {1}, {1}, {1}, {1}, {1}, {1}, {1}, {1}, {1}, {1}, {1}, {1}, {1}, {1}, {1}, {1}, {1}, {1}, {1}, {1}, {1}, {1}, {1}, {1}, {1}, {1}, {1}, {1}, {1}, {1}, {1}, {1}, {1}, {1}, {1}, {1}];
InstructorRolesPerProgramm = array2d(1..ProgrammNr,{},[]);
InstructorsAvailability = [|0, |1, |0, |1, |1, |0, |0, |1, |0, |1, |1, |1, |1, |0, |1, |1, |1, |1, |1, |1, |0, |1, |0, |1, |1, |1, |1, |1, |0, |0, |0, |1, |0, |1, |0, |0, |0, |1, |1, |1, |0, |1, |0, |1, |1, |0, |1, |1, |0, |1, |0, |0, |0, |1, |0, |0, |0, |1, |0, |0, |0, |1, |1, |1, |1, |0, |0, |0, |0, |0, |1, |0, |0, |0, |0, |0, |0, |0, |1, |0, |0, |0|];
StudentsProgramm = [1, 1, 1, 1, 1, 1, 1, 1, 1, 1];
StudentsDegree = [1, 1, 1, 1, 1, 1, 1, 1, 1, 1];
StudentsSupervisorId = [33, 24, 18, 2, 18, 59, 13, 31, 50, 69];
StudentsCourseIds = [{}, {}, {}, {}, {}, {}, {}, {}, {}, {}];
StudentsAvailability = [|0, |0, |1, |1, |1, |1, |0, |0, |1, |1|];
TheoryticalMinCard = [1, 1, 1, 1, 1, 1, 1, 1, 1, 1];
CoursesInstructorIds = [{1, 6, 10, 15, 18, 19, 21, 22, 25, 26, 27, 28, 29, 30, 33, 34, 35, 36, 39, 40, 41, 42, 44, 46, 51, 53, 54, 58, 61, 63, 64, 65, 66, 67, 70, 71, 72, 73, 75, 80, 82}, {2, 3, 4, 12, 13, 14, 16, 18, 19, 20, 23, 24, 25, 27, 28, 29, 31, 32, 33, 34, 35, 38, 41, 42, 44, 45, 46, 48, 49, 50, 51, 52, 53, 54, 56, 58, 59, 61, 63, 65, 68, 73, 75, 76, 77, 79, 80, 81}, {3, 4, 5, 6, 7, 10, 11, 12, 13, 16, 17, 19, 21, 22, 23, 24, 25, 27, 31, 32, 33, 34, 35, 37, 38, 39, 40, 41, 45, 47, 51, 52, 55, 56, 61, 62, 63, 64, 65, 66, 67, 70, 72, 73, 75, 76, 77, 78, 79, 82}, {3, 6, 16, 18, 21, 26, 27, 35, 45, 47, 48, 55, 58, 63, 64, 69, 70, 72, 77, 78, 80, 82}, {5, 8, 11, 12, 18, 19, 24, 28, 29, 31, 33, 37, 43, 45, 46, 50, 51, 52, 53, 56, 60, 65, 66, 69, 70, 73, 78, 79, 80}, {3, 8, 11, 12, 19, 21, 23, 24, 25, 31, 38, 43, 46, 54, 57, 62, 64, 66, 68, 72, 74, 75, 78, 82}];
RolesDemands = [];
RolesContinuity = [];
ExamLen = [2, 2, 2, 2, 2, 2, 2, 2, 2, 2];
LunchTsMinLen = 1;
LunchStarts = [20..22];
SupervisorAvailable = 0;
OptimalLunchLenght = [0, 2];
OptimalStartTs = [0, 0];
OptimalFinishTs = [1, 40];
MinimizeRooms = 100;
RolesSoftContinuity = array2d(1..2,{},[]);
SameDegreeInRoom = 10;
Mergeability = 2;
